c This is a simple example file to demonstrate the DIMACS
c input file format for maximum flow problems. The solution
c vector is [5,10,5,0,5,5,10,5] with cost at 15.
c Problem line (nodes, links)
p max 6 8
c source
n 1 45
c sink
n 6 -45
c Arc descriptor lines (from, to, capacity)
a 1 2 0 5 1
a 1 3 0 15 1
a 2 4 0 5 1
a 2 5 0 5 1
a 3 4 0 5 1
a 3 5 0 5 1
a 4 6 0 15 1
a 5 6 0 5 1
c
c End of file